#BEGIN: [Fri Oct 28 11:36:59 2022]
#HOST: mini10.local
#TIMELIMIT: 10800
#MEMLIMIT: 0
#FREQ: 10
#SOLVER: anSolverAsp221027
#CSP: benchmark/automata-network/star_asp/star06.lp
#K: 12
#COMMAND: /Users/soh/app/finding_attractors/incremental-finding.sh benchmark/automata-network/star_asp/star06.lp 12
benchmark/automata-network/star_asp/star06.lp 1
-e %----- The attractor computed for benchmark/automata-network/star_asp/star06.lp 
 %----- The size of the attractor = 1 

clingo version 5.4.0
Reading from ...from_paper2017/scripts/fixed-points.lp ...
Solving...
UNSATISFIABLE

Models       : 0
Calls        : 1
Time         : 0.009s (Solving: 0.00s 1st Model: 0.00s Unsat: 0.00s)
CPU Time     : 0.003s
benchmark/automata-network/star_asp/star06.lp 2
-e %----- The attractor computed for benchmark/automata-network/star_asp/star06.lp 
 %----- The size of the attractor = 2 
-e   %----- The attractor computed with Asynchronous Dynamics 

-e CMD: clingo /Users/soh/app/finding_attractors/01_original_from_paper2017/scripts/asynch.lp /Users/soh/app/finding_attractors/02_attractors-new/with-cycle/attractors-preF.lp /Users/soh/app/finding_attractors/02_attractors-new/with-cycle/attractors-postF.lp benchmark/automata-network/star_asp/star06.lp --const n=2 0

clingo version 5.4.0
Reading from ...ginal_from_paper2017/scripts/asynch.lp ...
Solving...
UNSATISFIABLE

Models       : 0
Calls        : 1
Time         : 0.042s (Solving: 0.00s 1st Model: 0.00s Unsat: 0.00s)
CPU Time     : 0.036s
[ Calling Python ]
[ Solving ready ]
*** Found: 0; skipped: 0
benchmark/automata-network/star_asp/star06.lp 3
-e %----- The attractor computed for benchmark/automata-network/star_asp/star06.lp 
 %----- The size of the attractor = 3 
-e   %----- The attractor computed with Asynchronous Dynamics 

-e CMD: clingo /Users/soh/app/finding_attractors/01_original_from_paper2017/scripts/asynch.lp /Users/soh/app/finding_attractors/02_attractors-new/with-cycle/attractors-preF.lp /Users/soh/app/finding_attractors/02_attractors-new/with-cycle/attractors-postF.lp benchmark/automata-network/star_asp/star06.lp --const n=3 0

clingo version 5.4.0
Reading from ...ginal_from_paper2017/scripts/asynch.lp ...
Solving...
UNSATISFIABLE

Models       : 0
Calls        : 1
Time         : 0.047s (Solving: 0.00s 1st Model: 0.00s Unsat: 0.00s)
CPU Time     : 0.041s
[ Calling Python ]
[ Solving ready ]
*** Found: 0; skipped: 0
benchmark/automata-network/star_asp/star06.lp 4
-e %----- The attractor computed for benchmark/automata-network/star_asp/star06.lp 
 %----- The size of the attractor = 4 
-e   %----- The attractor computed with Asynchronous Dynamics 

-e CMD: clingo /Users/soh/app/finding_attractors/01_original_from_paper2017/scripts/asynch.lp /Users/soh/app/finding_attractors/02_attractors-new/with-cycle/attractors-preF.lp /Users/soh/app/finding_attractors/02_attractors-new/with-cycle/attractors-postF.lp benchmark/automata-network/star_asp/star06.lp --const n=4 0

clingo version 5.4.0
Reading from ...ginal_from_paper2017/scripts/asynch.lp ...
Solving...
UNSATISFIABLE

Models       : 0
Calls        : 1
Time         : 0.053s (Solving: 0.00s 1st Model: 0.00s Unsat: 0.00s)
CPU Time     : 0.047s
[ Calling Python ]
[ Solving ready ]
*** Found: 0; skipped: 0
benchmark/automata-network/star_asp/star06.lp 5
-e %----- The attractor computed for benchmark/automata-network/star_asp/star06.lp 
 %----- The size of the attractor = 5 
-e   %----- The attractor computed with Asynchronous Dynamics 

-e CMD: clingo /Users/soh/app/finding_attractors/01_original_from_paper2017/scripts/asynch.lp /Users/soh/app/finding_attractors/02_attractors-new/with-cycle/attractors-preF.lp /Users/soh/app/finding_attractors/02_attractors-new/with-cycle/attractors-postF.lp benchmark/automata-network/star_asp/star06.lp --const n=5 0

clingo version 5.4.0
Reading from ...ginal_from_paper2017/scripts/asynch.lp ...
Solving...
UNSATISFIABLE

Models       : 0
Calls        : 1
Time         : 0.067s (Solving: 0.01s 1st Model: 0.00s Unsat: 0.01s)
CPU Time     : 0.062s
[ Calling Python ]
[ Solving ready ]
*** Found: 0; skipped: 0
benchmark/automata-network/star_asp/star06.lp 6
-e %----- The attractor computed for benchmark/automata-network/star_asp/star06.lp 
 %----- The size of the attractor = 6 
-e   %----- The attractor computed with Asynchronous Dynamics 

-e CMD: clingo /Users/soh/app/finding_attractors/01_original_from_paper2017/scripts/asynch.lp /Users/soh/app/finding_attractors/02_attractors-new/with-cycle/attractors-preF.lp /Users/soh/app/finding_attractors/02_attractors-new/with-cycle/attractors-postF.lp benchmark/automata-network/star_asp/star06.lp --const n=6 0

clingo version 5.4.0
Reading from ...ginal_from_paper2017/scripts/asynch.lp ...
Solving...
UNSATISFIABLE

Models       : 0
Calls        : 1
Time         : 0.093s (Solving: 0.01s 1st Model: 0.00s Unsat: 0.01s)
CPU Time     : 0.087s
[ Calling Python ]
[ Solving ready ]
*** Found: 0; skipped: 0
benchmark/automata-network/star_asp/star06.lp 7
-e %----- The attractor computed for benchmark/automata-network/star_asp/star06.lp 
 %----- The size of the attractor = 7 
-e   %----- The attractor computed with Asynchronous Dynamics 

-e CMD: clingo /Users/soh/app/finding_attractors/01_original_from_paper2017/scripts/asynch.lp /Users/soh/app/finding_attractors/02_attractors-new/with-cycle/attractors-preF.lp /Users/soh/app/finding_attractors/02_attractors-new/with-cycle/attractors-postF.lp benchmark/automata-network/star_asp/star06.lp --const n=7 0

clingo version 5.4.0
Reading from ...ginal_from_paper2017/scripts/asynch.lp ...
Solving...
UNSATISFIABLE

Models       : 0
Calls        : 1
Time         : 0.136s (Solving: 0.02s 1st Model: 0.00s Unsat: 0.02s)
CPU Time     : 0.132s
[ Calling Python ]
[ Solving ready ]
*** Found: 0; skipped: 0
benchmark/automata-network/star_asp/star06.lp 8
-e %----- The attractor computed for benchmark/automata-network/star_asp/star06.lp 
 %----- The size of the attractor = 8 
-e   %----- The attractor computed with Asynchronous Dynamics 

-e CMD: clingo /Users/soh/app/finding_attractors/01_original_from_paper2017/scripts/asynch.lp /Users/soh/app/finding_attractors/02_attractors-new/with-cycle/attractors-preF.lp /Users/soh/app/finding_attractors/02_attractors-new/with-cycle/attractors-postF.lp benchmark/automata-network/star_asp/star06.lp --const n=8 0

clingo version 5.4.0
Reading from ...ginal_from_paper2017/scripts/asynch.lp ...
Solving...
UNSATISFIABLE

Models       : 0
Calls        : 1
Time         : 0.225s (Solving: 0.07s 1st Model: 0.00s Unsat: 0.07s)
CPU Time     : 0.220s
[ Calling Python ]
[ Solving ready ]
*** Found: 0; skipped: 0
benchmark/automata-network/star_asp/star06.lp 9
-e %----- The attractor computed for benchmark/automata-network/star_asp/star06.lp 
 %----- The size of the attractor = 9 
-e   %----- The attractor computed with Asynchronous Dynamics 

-e CMD: clingo /Users/soh/app/finding_attractors/01_original_from_paper2017/scripts/asynch.lp /Users/soh/app/finding_attractors/02_attractors-new/with-cycle/attractors-preF.lp /Users/soh/app/finding_attractors/02_attractors-new/with-cycle/attractors-postF.lp benchmark/automata-network/star_asp/star06.lp --const n=9 0

clingo version 5.4.0
Reading from ...ginal_from_paper2017/scripts/asynch.lp ...
Solving...
UNSATISFIABLE

Models       : 0
Calls        : 1
Time         : 0.407s (Solving: 0.16s 1st Model: 0.00s Unsat: 0.16s)
CPU Time     : 0.401s
[ Calling Python ]
[ Solving ready ]
*** Found: 0; skipped: 0
benchmark/automata-network/star_asp/star06.lp 10
-e %----- The attractor computed for benchmark/automata-network/star_asp/star06.lp 
 %----- The size of the attractor = 10 
-e   %----- The attractor computed with Asynchronous Dynamics 

-e CMD: clingo /Users/soh/app/finding_attractors/01_original_from_paper2017/scripts/asynch.lp /Users/soh/app/finding_attractors/02_attractors-new/with-cycle/attractors-preF.lp /Users/soh/app/finding_attractors/02_attractors-new/with-cycle/attractors-postF.lp benchmark/automata-network/star_asp/star06.lp --const n=10 0

clingo version 5.4.0
Reading from ...ginal_from_paper2017/scripts/asynch.lp ...
Solving...
UNSATISFIABLE

Models       : 0
Calls        : 1
Time         : 0.740s (Solving: 0.31s 1st Model: 0.00s Unsat: 0.31s)
CPU Time     : 0.735s
[ Calling Python ]
[ Solving ready ]
*** Found: 0; skipped: 0
benchmark/automata-network/star_asp/star06.lp 11
-e %----- The attractor computed for benchmark/automata-network/star_asp/star06.lp 
 %----- The size of the attractor = 11 
-e   %----- The attractor computed with Asynchronous Dynamics 

-e CMD: clingo /Users/soh/app/finding_attractors/01_original_from_paper2017/scripts/asynch.lp /Users/soh/app/finding_attractors/02_attractors-new/with-cycle/attractors-preF.lp /Users/soh/app/finding_attractors/02_attractors-new/with-cycle/attractors-postF.lp benchmark/automata-network/star_asp/star06.lp --const n=11 0

clingo version 5.4.0
Reading from ...ginal_from_paper2017/scripts/asynch.lp ...
Solving...
UNSATISFIABLE

Models       : 0
Calls        : 1
Time         : 0.857s (Solving: 0.35s 1st Model: 0.00s Unsat: 0.35s)
CPU Time     : 0.851s
[ Calling Python ]
[ Solving ready ]
*** Found: 0; skipped: 0
benchmark/automata-network/star_asp/star06.lp 12
-e %----- The attractor computed for benchmark/automata-network/star_asp/star06.lp 
 %----- The size of the attractor = 12 
-e   %----- The attractor computed with Asynchronous Dynamics 

-e CMD: clingo /Users/soh/app/finding_attractors/01_original_from_paper2017/scripts/asynch.lp /Users/soh/app/finding_attractors/02_attractors-new/with-cycle/attractors-preF.lp /Users/soh/app/finding_attractors/02_attractors-new/with-cycle/attractors-postF.lp benchmark/automata-network/star_asp/star06.lp --const n=12 0

clingo version 5.4.0
Reading from ...ginal_from_paper2017/scripts/asynch.lp ...
Solving...
Answer: 1
active(level("A1",1),7) active(level("A2",1),3) active(level("A3",1),1) active(level("A4",1),9) active(level("A5",1),5) active(level("A6",1),11) active(level("A1",0),1) active(level("A1",0),2) active(level("A1",0),3) active(level("A1",0),4) active(level("A1",0),5) active(level("A1",0),6) active(level("A1",0),8) active(level("A1",0),9) active(level("A1",0),10) active(level("A1",0),11) active(level("A1",0),12) active(level("A2",0),1) active(level("A2",0),2) active(level("A2",0),4) active(level("A2",0),5) active(level("A2",0),6) active(level("A2",0),7) active(level("A2",0),8) active(level("A2",0),9) active(level("A2",0),10) active(level("A2",0),11) active(level("A2",0),12) active(level("A3",0),2) active(level("A3",0),3) active(level("A3",0),4) active(level("A3",0),5) active(level("A3",0),6) active(level("A3",0),7) active(level("A3",0),8) active(level("A3",0),9) active(level("A3",0),10) active(level("A3",0),11) active(level("A3",0),12) active(level("A4",0),1) active(level("A4",0),2) active(level("A4",0),3) active(level("A4",0),4) active(level("A4",0),5) active(level("A4",0),6) active(level("A4",0),7) active(level("A4",0),8) active(level("A4",0),10) active(level("A4",0),11) active(level("A4",0),12) active(level("A5",0),1) active(level("A5",0),2) active(level("A5",0),3) active(level("A5",0),4) active(level("A5",0),6) active(level("A5",0),7) active(level("A5",0),8) active(level("A5",0),9) active(level("A5",0),10) active(level("A5",0),11) active(level("A5",0),12) active(level("A6",0),1) active(level("A6",0),2) active(level("A6",0),3) active(level("A6",0),4) active(level("A6",0),5) active(level("A6",0),6) active(level("A6",0),7) active(level("A6",0),8) active(level("A6",0),9) active(level("A6",0),10) active(level("A6",0),12) active(level("A6",0),0) active(level("A5",0),0) active(level("A4",0),0) active(level("A3",0),0) active(level("A2",0),0) active(level("A1",0),0) numberStates(7)
SATISFIABLE

Models       : 1
Calls        : 1
Time         : 0.765s (Solving: 0.08s 1st Model: 0.01s Unsat: 0.07s)
CPU Time     : 0.760s
[ Calling Python ]
[ Solving ready ]
*** New model found! (currently 1 solutions found)
{(0, 0, 1, 0, 0, 0), (0, 1, 0, 0, 0, 0), (0, 0, 0, 0, 0, 0), (1, 0, 0, 0, 0, 0), (0, 0, 0, 1, 0, 0), (0, 0, 0, 0, 1, 0), (0, 0, 0, 0, 0, 1)}
*** Found: 1; skipped: 0
s SATISFIABLE
	Command being timed: "/Users/soh/app/finding_attractors/incremental-finding.sh benchmark/automata-network/star_asp/star06.lp 12"
	User time (seconds): 3.38
	System time (seconds): 0.18
	Percent of CPU this job got: 95%
	Elapsed (wall clock) time (h:mm:ss or m:ss): 0:03.72
	Average shared text size (kbytes): 0
	Average unshared data size (kbytes): 0
	Average stack size (kbytes): 0
	Average total size (kbytes): 0
	Maximum resident set size (kbytes): 152059904
	Average resident set size (kbytes): 0
	Major (requiring I/O) page faults: 0
	Minor (reclaiming a frame) page faults: 59512
	Voluntary context switches: 326
	Involuntary context switches: 845
	Swaps: 0
	File system inputs: 0
	File system outputs: 0
	Socket messages sent: 597
	Socket messages received: 0
	Signals delivered: 1
	Page size (bytes): 4096
	Exit status: 0
FINISHED CPU 3.56 MEM 0 MAXMEM 0 STALE 1
#RESULT: SAT
#FIN: FIN
#CPU: 3.56
#MAXMEM: 0
c 
#END: [Fri Oct 28 11:37:03 2022]
